NAME : graph2.hcp
COMMENT : FHCP Challenge Set. http://fhcp.edu.au/fhcpcs
TYPE : HCP
DIMENSION : 70
EDGE_DATA_FORMAT : EDGE_LIST
EDGE_DATA_SECTION
1 12
1 18
1 48
2 10
2 51
2 54
3 8
3 48
3 64
4 19
4 35
4 66
5 27
5 30
5 63
6 23
6 58
6 67
7 9
7 17
7 19
8 11
8 12
9 14
9 16
10 34
10 61
11 45
11 49
12 44
13 25
13 41
13 69
14 24
14 60
15 25
15 26
15 34
15 52
16 30
16 37
17 35
17 37
18 36
18 53
19 20
20 22
20 51
21 31
21 46
21 47
22 26
22 54
23 38
23 40
24 38
24 67
25 33
26 69
27 58
27 62
28 35
28 61
28 63
29 43
29 68
29 70
30 60
31 56
31 65
32 33
32 41
32 65
33 34
34 52
36 50
36 70
37 63
38 64
39 46
39 56
39 69
40 45
40 59
41 56
42 43
42 46
42 55
43 47
44 49
44 53
45 64
47 57
48 50
49 59
50 68
51 66
52 54
53 55
55 70
57 65
57 68
58 59
60 62
61 66
62 67
-1
EOF
